n_res = 4;
rc = [ 52, 40, 30, 24 ];
n_tasks = 15;
d = [ 2, 4, 2, 10, 125, 125, 175, 200, 150, 50, 150, 5, 3, 5, 1 ];
rr = [| 0, 6, 2, 9, 3, 0, 10, 9, 10, 4, 4, 4, 4, 6, 2
      | 7, 0, 2, 6, 2, 0, 3, 0, 8, 7, 6, 7, 9, 5, 9
      | 9, 0, 3, 8, 0, 10, 8, 1, 0, 3, 6, 4, 0, 3, 1
      | 9, 1, 0, 2, 0, 2, 5, 0, 4, 0, 0, 0, 3, 1, 6 |];
suc = [ { 5, 7, 8 },
       { 6 },
       { 4, 10 },
       { 12 },
       { 9, 13, 14 },
       { 7, 11 },
       { 15 },
       {  },
       {  },
       {  },
       {  },
       {  },
       {  },
       {  },
       {  } ];
